c n orig vars 70
p cnf 72 102
1 2 -71 0
3 4 -71 0
5 6 -71 0
7 8 -71 0
9 10 -71 0
11 12 -71 0
13 14 -71 0
15 16 -71 0
17 18 -71 0
19 20 -71 0
21 22 -71 0
23 24 -71 0
25 26 -71 0
27 28 -71 0
29 30 -71 0
31 32 -71 0
33 34 -71 0
35 36 -71 0
37 38 -71 0
39 40 -71 0
41 47 53 59 65 -72 0
42 48 54 60 66 -72 0
43 49 55 61 67 -72 0
44 50 56 62 68 -72 0
45 51 57 63 69 -72 0
46 52 58 64 70 -72 0
-41 -42 -72 0
-41 -43 -72 0
-41 -44 -72 0
-41 -45 -72 0
-41 -46 -72 0
-42 -43 -72 0
-42 -44 -72 0
-42 -45 -72 0
-42 -46 -72 0
-43 -44 -72 0
-43 -45 -72 0
-43 -46 -72 0
-44 -45 -72 0
-44 -46 -72 0
-45 -46 -72 0
-47 -48 -72 0
-47 -49 -72 0
-47 -50 -72 0
-47 -51 -72 0
-47 -52 -72 0
-48 -49 -72 0
-48 -50 -72 0
-48 -51 -72 0
-48 -52 -72 0
-49 -50 -72 0
-49 -51 -72 0
-49 -52 -72 0
-50 -51 -72 0
-50 -52 -72 0
-51 -52 -72 0
-53 -54 -72 0
-53 -55 -72 0
-53 -56 -72 0
-53 -57 -72 0
-53 -58 -72 0
-54 -55 -72 0
-54 -56 -72 0
-54 -57 -72 0
-54 -58 -72 0
-55 -56 -72 0
-55 -57 -72 0
-55 -58 -72 0
-56 -57 -72 0
-56 -58 -72 0
-57 -58 -72 0
-59 -60 -72 0
-59 -61 -72 0
-59 -62 -72 0
-59 -63 -72 0
-59 -64 -72 0
-60 -61 -72 0
-60 -62 -72 0
-60 -63 -72 0
-60 -64 -72 0
-61 -62 -72 0
-61 -63 -72 0
-61 -64 -72 0
-62 -63 -72 0
-62 -64 -72 0
-63 -64 -72 0
-65 -66 -72 0
-65 -67 -72 0
-65 -68 -72 0
-65 -69 -72 0
-65 -70 -72 0
-66 -67 -72 0
-66 -68 -72 0
-66 -69 -72 0
-66 -70 -72 0
-67 -68 -72 0
-67 -69 -72 0
-67 -70 -72 0
-68 -69 -72 0
-68 -70 -72 0
-69 -70 -72 0
71 72 0
